lbl,CUST NO.,READY TIME,XCOORD.,YCOORD.,DEMAND,DUE DATE,SERVICE TIME
11,367,151,276,66,17,161,10
11,589,177,293,62,10,187,10
11,392,185,274,66,21,195,10
11,399,228,262,80,17,238,10
11,491,400,289,79,19,410,10
11,183,443,260,64,23,453,10
11,471,460,283,65,27,470,10
11,394,493,294,64,32,503,10
11,454,517,281,68,23,527,10
11,519,682,272,70,26,692,10
11,517,716,265,78,7,726,10
11,319,732,297,43,13,742,10
11,512,767,300,44,3,777,10
11,53,866,282,76,26,876,10
11,557,943,284,72,17,953,10
